p cnf 218 659
7 0
9 -40 0
8 -40 0
-8 -9 40 0
-8 -9 -41 0
8 9 -41 0
8 -9 41 0
-8 9 41 0
11 -42 0
10 -42 0
-10 -11 42 0
-10 -11 -43 0
10 11 -43 0
10 -11 43 0
-10 11 43 0
13 -44 0
12 -44 0
-12 -13 44 0
-12 -13 -45 0
12 13 -45 0
12 -13 45 0
-12 13 45 0
15 -46 0
14 -46 0
-14 -15 46 0
-14 -15 -47 0
14 15 -47 0
14 -15 47 0
-14 15 47 0
17 -48 0
16 -48 0
-16 -17 48 0
-16 -17 -49 0
16 17 -49 0
16 -17 49 0
-16 17 49 0
19 -50 0
18 -50 0
-18 -19 50 0
-18 -19 -51 0
18 19 -51 0
18 -19 51 0
-18 19 51 0
21 -52 0
20 -52 0
-20 -21 52 0
-20 -21 -53 0
20 21 -53 0
20 -21 53 0
-20 21 53 0
23 -54 0
22 -54 0
-22 -23 54 0
-22 -23 -55 0
22 23 -55 0
22 -23 55 0
-22 23 55 0
25 -56 0
24 -56 0
-24 -25 56 0
-24 -25 -57 0
24 25 -57 0
24 -25 57 0
-24 25 57 0
27 -58 0
26 -58 0
-26 -27 58 0
-26 -27 -59 0
26 27 -59 0
26 -27 59 0
-26 27 59 0
29 -60 0
28 -60 0
-28 -29 60 0
-28 -29 -61 0
28 29 -61 0
28 -29 61 0
-28 29 61 0
31 -62 0
30 -62 0
-30 -31 62 0
-30 -31 -63 0
30 31 -63 0
30 -31 63 0
-30 31 63 0
33 -64 0
32 -64 0
-32 -33 64 0
-32 -33 -65 0
32 33 -65 0
32 -33 65 0
-32 33 65 0
35 -66 0
34 -66 0
-34 -35 66 0
-34 -35 -67 0
34 35 -67 0
34 -35 67 0
-34 35 67 0
37 -68 0
36 -68 0
-36 -37 68 0
-36 -37 -69 0
36 37 -69 0
36 -37 69 0
-36 37 69 0
39 -70 0
38 -70 0
-38 -39 70 0
-38 -39 -71 0
38 39 -71 0
38 -39 71 0
-38 39 71 0
43 -72 0
41 -72 0
-41 -43 72 0
-41 -43 -73 0
41 43 -73 0
41 -43 73 0
-41 43 73 0
-40 -42 74 0
-42 -72 74 0
-40 -72 74 0
40 42 -74 0
42 72 -74 0
40 72 -74 0
42 -74 -75 0
40 -74 -75 0
72 -74 -75 0
-42 74 75 0
-40 74 75 0
-72 74 75 0
-40 -42 -72 75 0
40 42 72 -75 0
47 -76 0
45 -76 0
-45 -47 76 0
-45 -47 -77 0
45 47 -77 0
45 -47 77 0
-45 47 77 0
-44 -46 78 0
-46 -76 78 0
-44 -76 78 0
44 46 -78 0
46 76 -78 0
44 76 -78 0
46 -78 -79 0
44 -78 -79 0
76 -78 -79 0
-46 78 79 0
-44 78 79 0
-76 78 79 0
-44 -46 -76 79 0
44 46 76 -79 0
51 -80 0
49 -80 0
-49 -51 80 0
-49 -51 -81 0
49 51 -81 0
49 -51 81 0
-49 51 81 0
-48 -50 82 0
-50 -80 82 0
-48 -80 82 0
48 50 -82 0
50 80 -82 0
48 80 -82 0
50 -82 -83 0
48 -82 -83 0
80 -82 -83 0
-50 82 83 0
-48 82 83 0
-80 82 83 0
-48 -50 -80 83 0
48 50 80 -83 0
55 -84 0
53 -84 0
-53 -55 84 0
-53 -55 -85 0
53 55 -85 0
53 -55 85 0
-53 55 85 0
-52 -54 86 0
-54 -84 86 0
-52 -84 86 0
52 54 -86 0
54 84 -86 0
52 84 -86 0
54 -86 -87 0
52 -86 -87 0
84 -86 -87 0
-54 86 87 0
-52 86 87 0
-84 86 87 0
-52 -54 -84 87 0
52 54 84 -87 0
59 -88 0
57 -88 0
-57 -59 88 0
-57 -59 -89 0
57 59 -89 0
57 -59 89 0
-57 59 89 0
-56 -58 90 0
-58 -88 90 0
-56 -88 90 0
56 58 -90 0
58 88 -90 0
56 88 -90 0
58 -90 -91 0
56 -90 -91 0
88 -90 -91 0
-58 90 91 0
-56 90 91 0
-88 90 91 0
-56 -58 -88 91 0
56 58 88 -91 0
63 -92 0
61 -92 0
-61 -63 92 0
-61 -63 -93 0
61 63 -93 0
61 -63 93 0
-61 63 93 0
-60 -62 94 0
-62 -92 94 0
-60 -92 94 0
60 62 -94 0
62 92 -94 0
60 92 -94 0
62 -94 -95 0
60 -94 -95 0
92 -94 -95 0
-62 94 95 0
-60 94 95 0
-92 94 95 0
-60 -62 -92 95 0
60 62 92 -95 0
67 -96 0
65 -96 0
-65 -67 96 0
-65 -67 -97 0
65 67 -97 0
65 -67 97 0
-65 67 97 0
-64 -66 98 0
-66 -96 98 0
-64 -96 98 0
64 66 -98 0
66 96 -98 0
64 96 -98 0
66 -98 -99 0
64 -98 -99 0
96 -98 -99 0
-66 98 99 0
-64 98 99 0
-96 98 99 0
-64 -66 -96 99 0
64 66 96 -99 0
71 -100 0
69 -100 0
-69 -71 100 0
-69 -71 -101 0
69 71 -101 0
69 -71 101 0
-69 71 101 0
-68 -70 102 0
-70 -100 102 0
-68 -100 102 0
68 70 -102 0
70 100 -102 0
68 100 -102 0
70 -102 -103 0
68 -102 -103 0
100 -102 -103 0
-70 102 103 0
-68 102 103 0
-100 102 103 0
-68 -70 -100 103 0
68 70 100 -103 0
77 -104 0
73 -104 0
-73 -77 104 0
-73 -77 -105 0
73 77 -105 0
73 -77 105 0
-73 77 105 0
-75 -79 106 0
-79 -104 106 0
-75 -104 106 0
75 79 -106 0
79 104 -106 0
75 104 -106 0
79 -106 -107 0
75 -106 -107 0
104 -106 -107 0
-79 106 107 0
-75 106 107 0
-104 106 107 0
-75 -79 -104 107 0
75 79 104 -107 0
-74 -78 108 0
-78 -106 108 0
-74 -106 108 0
74 78 -108 0
78 106 -108 0
74 106 -108 0
78 -108 -109 0
74 -108 -109 0
106 -108 -109 0
-78 108 109 0
-74 108 109 0
-106 108 109 0
-74 -78 -106 109 0
74 78 106 -109 0
85 -110 0
81 -110 0
-81 -85 110 0
-81 -85 -111 0
81 85 -111 0
81 -85 111 0
-81 85 111 0
-83 -87 112 0
-87 -110 112 0
-83 -110 112 0
83 87 -112 0
87 110 -112 0
83 110 -112 0
87 -112 -113 0
83 -112 -113 0
110 -112 -113 0
-87 112 113 0
-83 112 113 0
-110 112 113 0
-83 -87 -110 113 0
83 87 110 -113 0
-82 -86 114 0
-86 -112 114 0
-82 -112 114 0
82 86 -114 0
86 112 -114 0
82 112 -114 0
86 -114 -115 0
82 -114 -115 0
112 -114 -115 0
-86 114 115 0
-82 114 115 0
-112 114 115 0
-82 -86 -112 115 0
82 86 112 -115 0
93 -116 0
89 -116 0
-89 -93 116 0
-89 -93 -117 0
89 93 -117 0
89 -93 117 0
-89 93 117 0
-91 -95 118 0
-95 -116 118 0
-91 -116 118 0
91 95 -118 0
95 116 -118 0
91 116 -118 0
95 -118 -119 0
91 -118 -119 0
116 -118 -119 0
-95 118 119 0
-91 118 119 0
-116 118 119 0
-91 -95 -116 119 0
91 95 116 -119 0
-90 -94 120 0
-94 -118 120 0
-90 -118 120 0
90 94 -120 0
94 118 -120 0
90 118 -120 0
94 -120 -121 0
90 -120 -121 0
118 -120 -121 0
-94 120 121 0
-90 120 121 0
-118 120 121 0
-90 -94 -118 121 0
90 94 118 -121 0
101 -122 0
97 -122 0
-97 -101 122 0
-97 -101 -123 0
97 101 -123 0
97 -101 123 0
-97 101 123 0
-99 -103 124 0
-103 -122 124 0
-99 -122 124 0
99 103 -124 0
103 122 -124 0
99 122 -124 0
103 -124 -125 0
99 -124 -125 0
122 -124 -125 0
-103 124 125 0
-99 124 125 0
-122 124 125 0
-99 -103 -122 125 0
99 103 122 -125 0
-98 -102 126 0
-102 -124 126 0
-98 -124 126 0
98 102 -126 0
102 124 -126 0
98 124 -126 0
102 -126 -127 0
98 -126 -127 0
124 -126 -127 0
-102 126 127 0
-98 126 127 0
-124 126 127 0
-98 -102 -124 127 0
98 102 124 -127 0
111 -128 0
105 -128 0
-105 -111 128 0
-105 -111 -129 0
105 111 -129 0
105 -111 129 0
-105 111 129 0
-107 -113 130 0
-113 -128 130 0
-107 -128 130 0
107 113 -130 0
113 128 -130 0
107 128 -130 0
113 -130 -131 0
107 -130 -131 0
128 -130 -131 0
-113 130 131 0
-107 130 131 0
-128 130 131 0
-107 -113 -128 131 0
107 113 128 -131 0
-109 -115 132 0
-115 -130 132 0
-109 -130 132 0
109 115 -132 0
115 130 -132 0
109 130 -132 0
115 -132 -133 0
109 -132 -133 0
130 -132 -133 0
-115 132 133 0
-109 132 133 0
-130 132 133 0
-109 -115 -130 133 0
109 115 130 -133 0
-108 -114 134 0
-114 -132 134 0
-108 -132 134 0
108 114 -134 0
114 132 -134 0
108 132 -134 0
114 -134 -135 0
108 -134 -135 0
132 -134 -135 0
-114 134 135 0
-108 134 135 0
-132 134 135 0
-108 -114 -132 135 0
108 114 132 -135 0
123 -136 0
117 -136 0
-117 -123 136 0
-117 -123 -137 0
117 123 -137 0
117 -123 137 0
-117 123 137 0
-119 -125 138 0
-125 -136 138 0
-119 -136 138 0
119 125 -138 0
125 136 -138 0
119 136 -138 0
125 -138 -139 0
119 -138 -139 0
136 -138 -139 0
-125 138 139 0
-119 138 139 0
-136 138 139 0
-119 -125 -136 139 0
119 125 136 -139 0
-121 -127 140 0
-127 -138 140 0
-121 -138 140 0
121 127 -140 0
127 138 -140 0
121 138 -140 0
127 -140 -141 0
121 -140 -141 0
138 -140 -141 0
-127 140 141 0
-121 140 141 0
-138 140 141 0
-121 -127 -138 141 0
121 127 138 -141 0
-120 -126 142 0
-126 -140 142 0
-120 -140 142 0
120 126 -142 0
126 140 -142 0
120 140 -142 0
126 -142 -143 0
120 -142 -143 0
140 -142 -143 0
-126 142 143 0
-120 142 143 0
-140 142 143 0
-120 -126 -140 143 0
120 126 140 -143 0
137 -144 0
129 -144 0
-129 -137 144 0
-129 -137 -1 0
129 137 -1 0
129 -137 1 0
-129 137 1 0
-131 -139 145 0
-139 -144 145 0
-131 -144 145 0
131 139 -145 0
139 144 -145 0
131 144 -145 0
139 -145 -2 0
131 -145 -2 0
144 -145 -2 0
-139 145 2 0
-131 145 2 0
-144 145 2 0
-131 -139 -144 2 0
131 139 144 -2 0
-133 -141 146 0
-141 -145 146 0
-133 -145 146 0
133 141 -146 0
141 145 -146 0
133 145 -146 0
141 -146 -3 0
133 -146 -3 0
145 -146 -3 0
-141 146 3 0
-133 146 3 0
-145 146 3 0
-133 -141 -145 3 0
133 141 145 -3 0
-135 -143 147 0
-143 -146 147 0
-135 -146 147 0
135 143 -147 0
143 146 -147 0
135 146 -147 0
143 -147 -4 0
135 -147 -4 0
146 -147 -4 0
-143 147 4 0
-135 147 4 0
-146 147 4 0
-135 -143 -146 4 0
135 143 146 -4 0
-134 -142 5 0
-142 -147 5 0
-134 -147 5 0
134 142 -5 0
142 147 -5 0
134 147 -5 0
142 -5 -6 0
134 -5 -6 0
147 -5 -6 0
-142 5 6 0
-134 5 6 0
-147 5 6 0
-134 -142 -147 6 0
134 142 147 -6 0
8 -180 0
-8 180 0
9 -181 0
-9 181 0
10 -182 0
-10 182 0
11 -183 0
-11 183 0
12 -184 0
-12 184 0
13 -185 0
-13 185 0
14 -186 0
-14 186 0
15 -187 0
-15 187 0
16 -188 0
-16 188 0
17 -189 0
-17 189 0
18 -190 0
-18 190 0
19 -191 0
-19 191 0
20 -192 0
-20 192 0
21 -193 0
-21 193 0
22 -194 0
-22 194 0
23 -195 0
-23 195 0
24 -196 0
-24 196 0
25 -197 0
-25 197 0
26 -198 0
-26 198 0
27 -199 0
-27 199 0
28 -200 0
-28 200 0
29 -201 0
-29 201 0
30 -202 0
-30 202 0
31 -203 0
-31 203 0
32 -204 0
-32 204 0
33 -205 0
-33 205 0
34 -206 0
-34 206 0
35 -207 0
-35 207 0
36 -208 0
-36 208 0
37 -209 0
-37 209 0
38 -210 0
-38 210 0
39 -211 0
-39 211 0
-212 -214 -216 0
212 214 -216 0
-212 214 216 0
212 -214 216 0
-213 -215 -217 0
213 215 -217 0
-213 215 217 0
213 -215 217 0
-216 -218 0
-217 -218 0
216 217 218 0
-7 218 0
7 -218 0
c __CPROVER_malloc_is_new_array#1 FALSE
c popcnt::1::__return_value!0@1#1 148 149 150 151 152 153 154 155 156 157 158 159 160 161 162 163 164 165 166 167 168 169 170 171 172 173 174 175 176 177 178 179
c popcnt::1::__return_value!0@1#2 1 2 3 4 6 5 FALSE FALSE FALSE FALSE FALSE FALSE FALSE FALSE FALSE FALSE FALSE FALSE FALSE FALSE FALSE FALSE FALSE FALSE FALSE FALSE FALSE FALSE FALSE FALSE FALSE FALSE
c popcnt::i!0@1#4 105 107 109 108 FALSE FALSE FALSE FALSE 111 113 115 114 FALSE FALSE FALSE FALSE 117 119 121 120 FALSE FALSE FALSE FALSE 123 125 127 126 FALSE FALSE FALSE FALSE
c popcnt::i!0@1#2 41 40 43 42 45 44 47 46 49 48 51 50 53 52 55 54 57 56 59 58 61 60 63 62 65 64 67 66 69 68 71 70
c popcnt::i!0@1#1 8 9 10 11 12 13 14 15 16 17 18 19 20 21 22 23 24 25 26 27 28 29 30 31 32 33 34 35 36 37 38 39
c __CPROVER_malloc_object#1 FALSE FALSE FALSE FALSE FALSE FALSE FALSE FALSE FALSE FALSE FALSE FALSE FALSE FALSE FALSE FALSE FALSE FALSE FALSE FALSE FALSE FALSE FALSE FALSE FALSE FALSE FALSE FALSE FALSE FALSE FALSE FALSE
c _start::i!0#1 8 9 10 11 12 13 14 15 16 17 18 19 20 21 22 23 24 25 26 27 28 29 30 31 32 33 34 35 36 37 38 39
c popcnt::i!0@1#5 129 131 133 135 134 FALSE FALSE FALSE FALSE FALSE FALSE FALSE FALSE FALSE FALSE FALSE 137 139 141 143 142 FALSE FALSE FALSE FALSE FALSE FALSE FALSE FALSE FALSE FALSE FALSE
c __CPROVER_deallocated#1 FALSE FALSE FALSE FALSE FALSE FALSE FALSE FALSE FALSE FALSE FALSE FALSE FALSE FALSE FALSE FALSE FALSE FALSE FALSE FALSE FALSE FALSE FALSE FALSE FALSE FALSE FALSE FALSE FALSE FALSE FALSE FALSE
c __CPROVER_malloc_size#1 FALSE FALSE FALSE FALSE FALSE FALSE FALSE FALSE FALSE FALSE FALSE FALSE FALSE FALSE FALSE FALSE FALSE FALSE FALSE FALSE FALSE FALSE FALSE FALSE FALSE FALSE FALSE FALSE FALSE FALSE FALSE FALSE
c popcnt::i!0@1#3 73 75 74 FALSE 77 79 78 FALSE 81 83 82 FALSE 85 87 86 FALSE 89 91 90 FALSE 93 95 94 FALSE 97 99 98 FALSE 101 103 102 FALSE
c __CPROVER_dead_object#1 FALSE FALSE FALSE FALSE FALSE FALSE FALSE FALSE FALSE FALSE FALSE FALSE FALSE FALSE FALSE FALSE FALSE FALSE FALSE FALSE FALSE FALSE FALSE FALSE FALSE FALSE FALSE FALSE FALSE FALSE FALSE FALSE
c __CPROVER_memory_leak#1 FALSE FALSE FALSE FALSE FALSE FALSE FALSE FALSE FALSE FALSE FALSE FALSE FALSE FALSE FALSE FALSE FALSE FALSE FALSE FALSE FALSE FALSE FALSE FALSE FALSE FALSE FALSE FALSE FALSE FALSE FALSE FALSE
c __CPROVER_next_thread_id#1 FALSE FALSE FALSE FALSE FALSE FALSE FALSE FALSE FALSE FALSE FALSE FALSE FALSE FALSE FALSE FALSE FALSE FALSE FALSE FALSE FALSE FALSE FALSE FALSE FALSE FALSE FALSE FALSE FALSE FALSE FALSE FALSE
c symex::io::0 180 181 182 183 184 185 186 187 188 189 190 191 192 193 194 195 196 197 198 199 200 201 202 203 204 205 206 207 208 209 210 211
c __CPROVER_pipe_count#1 FALSE FALSE FALSE FALSE FALSE FALSE FALSE FALSE FALSE FALSE FALSE FALSE FALSE FALSE FALSE FALSE FALSE FALSE FALSE FALSE FALSE FALSE FALSE FALSE FALSE FALSE FALSE FALSE FALSE FALSE FALSE FALSE
c __CPROVER_rounding_mode!0#1 FALSE FALSE FALSE FALSE FALSE FALSE FALSE FALSE FALSE FALSE FALSE FALSE FALSE FALSE FALSE FALSE FALSE FALSE FALSE FALSE FALSE FALSE FALSE FALSE FALSE FALSE FALSE FALSE FALSE FALSE FALSE FALSE
c __CPROVER_thread_id!0#1 FALSE FALSE FALSE FALSE FALSE FALSE FALSE FALSE FALSE FALSE FALSE FALSE FALSE FALSE FALSE FALSE FALSE FALSE FALSE FALSE FALSE FALSE FALSE FALSE FALSE FALSE FALSE FALSE FALSE FALSE FALSE FALSE
c ind 1 2 3 4 5 6 0
cr 1 2 3 4 5 6
